1
95
98
174
12
161
71
27
176
180
94
57
34
169
58
84
7
52
116
163
54
154
191
177
143
171
88
22
23
104
144
193
160
153
24
18
105
77
103
183
140
106
159
50
164
185
118
14
125
120
42
109
2
155
13
126
187
63
31
48
195
156
121
82
64
33
147
15
112
128
51
110
78
17
192
41
148
102
200
19
151
92
119
96
137
162
135
130
44
36
45
16
55
139
173
115
37
72
184
141
65
124
127
188
79
113
179
81
47
101
150
69
26
100
56
62
132
5
197
67
40
117
190
189
111
68
10
123
142
85
122
73
53
170
149
70
198
39
194
75
30
181
134
49
86
138
166
108
152
38
20
80
146
46
25
9
90
21
3
158
11
93
28
129
91
97
99
8
29
136
59
167
175
32
76
107
35
61
172
157
131
199
178
74
165
60
186
196
43
89
87
114
168
133
66
145
4
83
182
6
1
